50, 4838
246, 192
41, 32
41, 32
93, 117
155, 195
310, 390
246, 192
246, 192
410, 320
124, 156
217, 273
328, 256
279, 351
41, 32
164, 128
246, 192
217, 273
310, 390
93, 117
248, 312
287, 224
328, 256
246, 192
246, 192
124, 156
93, 117
248, 312
287, 224
155, 195
310, 390
155, 195
186, 234
41, 32
279, 351
328, 256
410, 320
93, 117
186, 234
155, 195
328, 256
41, 32
124, 156
310, 390
62, 78
82, 64
328, 256
164, 128
41, 32
41, 32
41, 32
